<number of tasks>
20


<number of equipment>
5


<cycle time>
1000


<investment costs>
1,20752
2,16633
3,18827
4,9467
5,25342


<task times>
1,-1,-1,231,362,155
2,-1,191,220,-1,119
3,-1,-1,229,358,151
4,-1,-1,408,392,204
5,-1,-1,221,335,115
6,-1,-1,388,389,141
7,194,244,-1,-1,-1
8,-1,-1,208,346,130
9,-1,107,206,-1,109
10,-1,-1,250,367,181
11,-1,-1,222,280,148
12,-1,220,227,-1,125
13,-1,-1,187,263,132
14,193,253,-1,-1,-1
15,-1,226,226,-1,165
16,-1,269,237,-1,141
17,58,207,-1,-1,-1
18,-1,265,239,-1,160
19,-1,257,200,-1,117
20,-1,-1,136,387,119


<precedence relations>
1,8
2,8
3,8
4,8
5,11
6,9
7,10
8,12
8,13
8,14
8,15
11,16
12,17
14,18
16,19
17,20


<task types>
1,3
2,2
3,3
4,3
5,3
6,3
7,1
8,3
9,2
10,3
11,3
12,2
13,3
14,1
15,2
16,2
17,1
18,2
19,2
20,3


<line depot>
1,1
2,2
3,0
4,1
5,3


<processing costs>
1,7200
2,14400
3,14400
4,7200
5,14400


<saving costs>
1,2075
2,1663
3,1882
4,946
5,2534


<end>
